# Test filter pushdown optimization rule.

statement ok
CREATE TEMP TABLE t1 (i INT);

statement ok
INSERT INTO t1 VALUES (1), (2), (3), (NULL);

statement ok
SET allow_nested_loop_join TO false;

query II
SELECT * FROM t1 a1, t1 a2 WHERE a1.i = a2.i;
----
1  1
2  2
3  3
